Set parameter TokenServer to value "hpc-licenses.hpcc.usc.edu"
Set parameter TimeLimit to value 3600
Gurobi Optimizer version 9.5.1 build v9.5.1rc2 (linux64)
Thread count: 20 physical cores, 20 logical processors, using up to 20 threads
Optimize a model with 6007 rows, 4529 columns and 24534 nonzeros
Model fingerprint: 0xf9d34c4d
Variable types: 4506 continuous, 23 integer (23 binary)
Coefficient statistics:
  Matrix range     [1e+00, 1e+00]
  Objective range  [2e-03, 1e+00]
  Bounds range     [1e+00, 1e+00]
  RHS range        [1e+00, 1e+02]
Presolve removed 1520 rows and 1515 columns
Presolve time: 0.06s
Presolved: 4487 rows, 3014 columns, 21975 nonzeros
Variable types: 2994 continuous, 20 integer (20 binary)
Found heuristic solution: objective 278.8106697

Root relaxation: objective 2.870559e+02, 2767 iterations, 0.14 seconds (0.18 work units)

    Nodes    |    Current Node    |     Objective Bounds      |     Work
 Expl Unexpl |  Obj  Depth IntInf | Incumbent    BestBd   Gap | It/Node Time

     0     0  287.05588    0    3  278.81067  287.05588  2.96%     -    0s
H    0     0                     286.8622366  287.05092  0.07%     -    0s
     0     0  287.05092    0    3  286.86224  287.05092  0.07%     -    0s
     0     0  287.00672    0    3  286.86224  287.00672  0.05%     -    0s
     0     0  287.00672    0    3  286.86224  287.00672  0.05%     -    0s

Cutting planes:
  Gomory: 3
  Implied bound: 592
  MIR: 87
  Flow cover: 319
  RLT: 9
  Relax-and-lift: 152

Explored 1 nodes (4259 simplex iterations) in 1.68 seconds (0.62 work units)
Thread count was 20 (of 20 available processors)

Solution count 2: 286.862 278.811 

Optimal solution found (tolerance 1.00e-04)
Best objective 2.868622365754e+02, best bound 2.868622365754e+02, gap 0.0000%



#########node  1
V1.8
#########node  2
0.0,1.0
#########node  3
1.0,0.0


Total Solving Time 2.1372158527374268
obj value 286.86223657541433
Policy Regret train (Sum) 3.4466623243982886
Best Treatment Found train (%) 75.4
treatment classification acc train (%) 37.8
Policy Regret test (Sum) 33.68478658989411
Best Treatment Found test (%) 82.75
treatment classification acc test (%) 40.58
